p cnf 175 455
a 11 14 46 53 21 23 2 4 10 33 99 113 126 142 150 167 1 9 20 31 0
d 36 46 53 0
d 92 20 31 0
d 86 1 9 0
d 136 126 142 0
d 3 2 0
d 5 4 0
d 6 2 4 0
d 7 1 2 4 0
d 8 1 2 4 0
d 12 11 0
d 13 10 11 0
d 15 14 0
d 16 10 11 14 0
d 17 9 10 11 14 0
d 18 9 10 11 14 0
d 19 1 2 4 9 10 11 14 0
d 22 21 0
d 24 23 0
d 25 21 23 0
d 26 21 23 2 0
d 27 21 23 2 4 0
d 28 20 21 23 2 4 0
d 29 20 21 23 2 4 0
d 30 1 2 4 9 10 11 14 20 21 23 0
d 32 10 0
d 34 10 33 0
d 35 11 14 0
d 37 11 14 46 53 0
d 38 10 33 11 14 46 53 0
d 39 31 10 33 11 14 46 53 0
d 40 31 10 33 11 14 46 53 0
d 41 1 2 4 9 10 11 14 20 21 23 31 33 46 53 0
d 42 11 0
d 43 11 14 0
d 44 11 14 0
d 45 11 14 0
d 47 46 11 0
d 48 46 11 14 0
d 49 46 11 14 0
d 50 11 14 46 0
d 51 46 0
d 52 11 14 46 0
d 54 11 14 46 53 0
d 55 11 14 46 53 0
d 56 11 14 46 53 0
d 57 21 11 0
d 58 21 11 14 0
d 59 46 53 21 11 14 0
d 60 53 0
d 61 46 53 0
d 62 46 53 21 11 14 0
d 63 46 53 21 11 14 0
d 64 11 14 46 53 21 0
d 65 21 23 0
d 66 21 23 11 14 46 53 0
d 67 11 14 46 53 0
d 68 21 23 11 14 46 53 0
d 69 21 23 11 14 46 53 0
d 70 11 14 46 53 21 23 0
d 71 2 11 0
d 72 2 11 14 0
d 73 46 53 21 0
d 74 46 53 21 23 0
d 75 2 11 14 46 53 21 23 0
d 76 46 53 21 0
d 77 46 53 21 23 0
d 78 2 11 14 46 53 21 23 0
d 79 2 11 14 46 53 21 23 0
d 80 11 14 46 53 21 23 2 0
d 81 21 23 2 4 0
d 82 11 14 46 53 21 23 2 4 0
d 83 11 14 46 53 21 23 2 4 0
d 84 11 14 46 53 21 23 2 4 0
d 85 11 14 46 53 21 23 2 4 0
d 87 46 53 21 23 1 9 0
d 88 2 4 10 11 14 0
d 89 46 53 21 23 2 4 10 11 14 0
d 90 46 53 21 23 1 9 2 4 10 11 14 0
d 91 11 14 46 53 21 23 2 4 1 9 10 0
d 93 10 33 11 14 46 53 0
d 94 21 23 2 4 10 33 11 14 46 53 0
d 95 20 31 21 23 2 4 10 33 11 14 46 53 0
d 96 11 14 46 53 21 23 2 4 1 9 10 20 31 33 0
d 97 10 33 0
d 98 2 4 10 33 0
d 100 99 11 0
d 101 99 11 14 0
d 102 99 11 14 46 53 21 23 0
d 103 2 4 10 33 99 11 14 46 53 21 23 0
d 104 2 4 10 0
d 105 33 0
d 106 2 4 10 33 0
d 107 99 11 14 46 53 21 23 0
d 108 2 4 10 33 99 11 14 46 53 21 23 0
d 109 2 4 10 33 99 11 14 46 53 21 23 0
d 110 11 14 46 53 21 23 2 4 1 9 10 20 31 33 99 0
d 111 99 0
d 112 10 33 99 0
d 114 10 33 99 113 0
d 115 11 14 46 53 21 23 2 4 0
d 116 10 33 99 113 11 14 46 53 21 23 2 4 0
d 117 10 33 0
d 118 10 33 99 0
d 119 10 33 99 113 0
d 120 11 14 46 53 21 23 2 4 0
d 121 10 33 99 113 11 14 46 53 21 23 2 4 0
d 122 10 33 99 113 11 14 46 53 21 23 2 4 0
d 123 11 14 46 53 21 23 2 4 1 9 10 20 31 33 99 113 0
d 124 113 0
d 125 99 113 0
d 127 126 11 0
d 128 126 11 14 0
d 129 99 113 126 11 14 0
d 130 46 53 21 23 2 4 10 33 0
d 131 99 113 126 11 14 46 53 21 23 2 4 10 33 0
d 132 46 53 21 23 2 4 10 33 0
d 133 99 113 126 11 14 46 53 21 23 2 4 10 33 0
d 134 99 113 126 11 14 46 53 21 23 2 4 10 33 0
d 135 11 14 46 53 21 23 2 4 1 9 10 20 31 33 99 113 126 0
d 137 126 142 11 14 46 53 0
d 138 10 33 99 113 0
d 139 21 23 2 4 10 33 99 113 0
d 140 126 142 11 14 46 53 21 23 2 4 10 33 99 113 0
d 141 126 0
d 143 126 142 0
d 144 126 142 11 14 46 53 0
d 145 10 33 99 113 0
d 146 21 23 2 4 10 33 99 113 0
d 147 126 142 11 14 46 53 21 23 2 4 10 33 99 113 0
d 148 126 142 11 14 46 53 21 23 2 4 10 33 99 113 0
d 149 11 14 46 53 21 23 2 4 1 9 10 20 31 33 99 113 126 142 0
d 151 150 11 0
d 152 150 11 14 0
d 153 150 11 14 46 53 21 23 0
d 154 99 113 126 0
d 155 142 0
d 156 99 113 126 142 0
d 157 2 4 10 33 99 113 126 142 0
d 158 150 11 14 46 53 21 23 2 4 10 33 99 113 126 142 0
d 159 150 11 14 46 53 21 23 0
d 160 2 4 10 33 99 113 126 142 0
d 161 150 11 14 46 53 21 23 2 4 10 33 99 113 126 142 0
d 162 150 11 14 46 53 21 23 2 4 10 33 99 113 126 142 0
d 163 11 14 46 53 21 23 2 4 1 9 10 20 31 33 99 113 126 142 150 0
d 164 126 142 0
d 165 150 0
d 166 126 142 150 0
d 168 126 142 150 167 0
d 169 10 33 99 113 126 142 150 167 0
d 170 11 14 46 53 21 23 2 4 10 33 99 113 126 142 150 167 0
d 171 10 33 99 113 126 142 150 167 0
d 172 11 14 46 53 21 23 2 4 10 33 99 113 126 142 150 167 0
d 173 11 14 46 53 21 23 2 4 10 33 99 113 126 142 150 167 0
d 174 11 14 46 53 21 23 2 4 1 9 10 20 31 33 99 113 126 142 150 167 0
d 175 1 2 4 9 10 11 14 20 21 23 31 33 46 53 99 113 126 142 150 167 0
3 2 0
-3 -2 0
5 4 0
-5 -4 0
-6 3 0
-6 5 0
6 -3 -5 0
7 -1 -6 0
7 1 6 0
-7 -1 6 0
-7 1 -6 0
8 7 0
-8 -7 0
12 11 0
-12 -11 0
-13 10 0
-13 12 0
13 -10 -12 0
15 14 0
-15 -14 0
-16 13 0
-16 15 0
16 -13 -15 0
17 -9 -16 0
17 9 16 0
-17 -9 16 0
-17 9 -16 0
18 17 0
-18 -17 0
19 -8 0
19 -18 0
-19 8 18 0
22 21 0
-22 -21 0
24 23 0
-24 -23 0
-25 22 0
-25 24 0
25 -22 -24 0
-26 25 0
-26 3 0
26 -25 -3 0
-27 26 0
-27 5 0
27 -26 -5 0
28 -20 -27 0
28 20 27 0
-28 -20 27 0
-28 20 -27 0
29 28 0
-29 -28 0
30 -19 0
30 -29 0
-30 19 29 0
32 10 0
-32 -10 0
-34 32 0
-34 33 0
34 -32 -33 0
-35 12 0
-35 15 0
35 -12 -15 0
-37 35 0
-37 36 0
37 -35 -36 0
-38 34 0
-38 37 0
38 -34 -37 0
39 -31 -38 0
39 31 38 0
-39 -31 38 0
-39 31 -38 0
40 39 0
-40 -39 0
41 -30 0
41 -40 0
-41 30 40 0
42 -11 -11 0
42 11 11 0
-42 -11 11 0
-42 11 -11 0
-43 12 0
-43 14 0
43 -12 -14 0
44 -43 -43 0
44 43 43 0
-44 -43 43 0
-44 43 -43 0
-45 42 0
-45 44 0
45 -42 -44 0
-47 46 0
-47 12 0
47 -46 -12 0
-48 47 0
-48 15 0
48 -47 -15 0
49 -48 -48 0
49 48 48 0
-49 -48 48 0
-49 48 -48 0
-50 45 0
-50 49 0
50 -45 -49 0
51 46 0
-51 -46 0
-52 35 0
-52 51 0
52 -35 -51 0
-54 52 0
-54 53 0
54 -52 -53 0
55 -54 -54 0
55 54 54 0
-55 -54 54 0
-55 54 -54 0
-56 50 0
-56 55 0
56 -50 -55 0
-57 21 0
-57 12 0
57 -21 -12 0
-58 57 0
-58 15 0
58 -57 -15 0
-59 36 0
-59 58 0
59 -36 -58 0
60 53 0
-60 -53 0
-61 51 0
-61 60 0
61 -51 -60 0
-62 61 0
-62 58 0
62 -61 -58 0
63 -59 -62 0
63 59 62 0
-63 -59 62 0
-63 59 -62 0
-64 56 0
-64 63 0
64 -56 -63 0
-65 22 0
-65 23 0
65 -22 -23 0
-66 65 0
-66 37 0
66 -65 -37 0
-67 52 0
-67 60 0
67 -52 -60 0
-68 65 0
-68 67 0
68 -65 -67 0
69 -66 -68 0
69 66 68 0
-69 -66 68 0
-69 66 -68 0
-70 64 0
-70 69 0
70 -64 -69 0
-71 2 0
-71 12 0
71 -2 -12 0
-72 71 0
-72 15 0
72 -71 -15 0
-73 36 0
-73 22 0
73 -36 -22 0
-74 73 0
-74 24 0
74 -73 -24 0
-75 72 0
-75 74 0
75 -72 -74 0
-76 61 0
-76 22 0
76 -61 -22 0
-77 76 0
-77 24 0
77 -76 -24 0
-78 72 0
-78 77 0
78 -72 -77 0
79 -75 -78 0
79 75 78 0
-79 -75 78 0
-79 75 -78 0
-80 70 0
-80 79 0
80 -70 -79 0
-81 26 0
-81 4 0
81 -26 -4 0
-82 37 0
-82 81 0
82 -37 -81 0
-83 67 0
-83 81 0
83 -67 -81 0
84 -82 -83 0
84 82 83 0
-84 -82 83 0
-84 82 -83 0
-85 80 0
-85 84 0
85 -80 -84 0
-87 74 0
-87 86 0
87 -74 -86 0
-88 6 0
-88 16 0
88 -6 -16 0
-89 77 0
-89 88 0
89 -77 -88 0
90 -87 -89 0
90 87 89 0
-90 -87 89 0
-90 87 -89 0
-91 85 0
-91 90 0
91 -85 -90 0
-93 34 0
-93 67 0
93 -34 -67 0
-94 27 0
-94 93 0
94 -27 -93 0
95 -92 -94 0
95 92 94 0
-95 -92 94 0
-95 92 -94 0
-96 91 0
-96 95 0
96 -91 -95 0
97 -10 0
97 -33 0
-97 10 33 0
-98 6 0
-98 97 0
98 -6 -97 0
-100 99 0
-100 12 0
100 -99 -12 0
-101 100 0
-101 15 0
101 -100 -15 0
-102 101 0
-102 74 0
102 -101 -74 0
-103 98 0
-103 102 0
103 -98 -102 0
-104 6 0
-104 32 0
104 -6 -32 0
105 33 0
-105 -33 0
-106 104 0
-106 105 0
106 -104 -105 0
-107 101 0
-107 77 0
107 -101 -77 0
-108 106 0
-108 107 0
108 -106 -107 0
109 -103 -108 0
109 103 108 0
-109 -103 108 0
-109 103 -108 0
-110 96 0
-110 109 0
110 -96 -109 0
111 99 0
-111 -99 0
-112 97 0
-112 111 0
112 -97 -111 0
-114 112 0
-114 113 0
114 -112 -113 0
-115 37 0
-115 27 0
115 -37 -27 0
-116 114 0
-116 115 0
116 -114 -115 0
-117 32 0
-117 105 0
117 -32 -105 0
-118 117 0
-118 111 0
118 -117 -111 0
-119 118 0
-119 113 0
119 -118 -113 0
-120 67 0
-120 27 0
120 -67 -27 0
-121 119 0
-121 120 0
121 -119 -120 0
122 -116 -121 0
122 116 121 0
-122 -116 121 0
-122 116 -121 0
-123 110 0
-123 122 0
123 -110 -122 0
124 113 0
-124 -113 0
-125 111 0
-125 124 0
125 -111 -124 0
-127 126 0
-127 12 0
127 -126 -12 0
-128 127 0
-128 15 0
128 -127 -15 0
-129 125 0
-129 128 0
129 -125 -128 0
-130 74 0
-130 98 0
130 -74 -98 0
-131 129 0
-131 130 0
131 -129 -130 0
-132 77 0
-132 106 0
132 -77 -106 0
-133 129 0
-133 132 0
133 -129 -132 0
134 -131 -133 0
134 131 133 0
-134 -131 133 0
-134 131 -133 0
-135 123 0
-135 134 0
135 -123 -134 0
-137 136 0
-137 37 0
137 -136 -37 0
-138 112 0
-138 124 0
138 -112 -124 0
-139 27 0
-139 138 0
139 -27 -138 0
-140 137 0
-140 139 0
140 -137 -139 0
141 126 0
-141 -126 0
-143 141 0
-143 142 0
143 -141 -142 0
-144 143 0
-144 67 0
144 -143 -67 0
-145 118 0
-145 124 0
145 -118 -124 0
-146 27 0
-146 145 0
146 -27 -145 0
-147 144 0
-147 146 0
147 -144 -146 0
148 -140 -147 0
148 140 147 0
-148 -140 147 0
-148 140 -147 0
-149 135 0
-149 148 0
149 -135 -148 0
-151 150 0
-151 12 0
151 -150 -12 0
-152 151 0
-152 15 0
152 -151 -15 0
-153 152 0
-153 74 0
153 -152 -74 0
-154 125 0
-154 141 0
154 -125 -141 0
155 142 0
-155 -142 0
-156 154 0
-156 155 0
156 -154 -155 0
-157 98 0
-157 156 0
157 -98 -156 0
-158 153 0
-158 157 0
158 -153 -157 0
-159 152 0
-159 77 0
159 -152 -77 0
-160 106 0
-160 156 0
160 -106 -156 0
-161 159 0
-161 160 0
161 -159 -160 0
162 -158 -161 0
162 158 161 0
-162 -158 161 0
-162 158 -161 0
-163 149 0
-163 162 0
163 -149 -162 0
-164 141 0
-164 155 0
164 -141 -155 0
165 150 0
-165 -150 0
-166 164 0
-166 165 0
166 -164 -165 0
-168 166 0
-168 167 0
168 -166 -167 0
-169 138 0
-169 168 0
169 -138 -168 0
-170 115 0
-170 169 0
170 -115 -169 0
-171 145 0
-171 168 0
171 -145 -168 0
-172 120 0
-172 171 0
172 -120 -171 0
173 -170 -172 0
173 170 172 0
-173 -170 172 0
-173 170 -172 0
-174 163 0
-174 173 0
174 -163 -173 0
175 -41 0
175 -174 0
-175 41 174 0
175 0
